19 18
19 18 15 13 12 11 10 9 8 7 6 5 4 3 2 
1 
1 
1 
1 
1 
1 
1 
1 
1 
1 
1 
1 14 
13 
1 16 17 
15 
15 
1 
1 
19 18
19 18 15 13 12 11 10 9 8 7 6 5 4 3 2 
1 
1 
1 
1 
1 
1 
1 
1 
1 
1 
1 
1 14 
13 
1 16 17 
15 
15 
1 
1 
